c WMC file for PBN ISCAS/c2670_distill_ISCAS/c2670_miter written by probABC
p cnf 684 1332
241 -46 193 0
-241 46 0
-241 -193 0
242 -57 -193 0
-242 57 0
-242 193 0
243 -196 241 0
-243 196 0
-243 -241 0
244 242 -243 0
-244 -242 0
-244 243 0
245 -68 193 0
-245 68 0
-245 -193 0
246 -36 -193 0
-246 36 0
-246 193 0
247 196 245 0
-247 -196 0
-247 -245 0
248 246 -247 0
-248 -246 0
-248 247 0
249 244 248 0
-249 -244 0
-249 -248 0
250 -100 221 0
-250 100 0
-250 -221 0
251 -90 -221 0
-251 90 0
-251 221 0
252 -222 250 0
-252 222 0
-252 -250 0
253 251 -252 0
-253 -251 0
-253 252 0
254 -110 221 0
-254 110 0
-254 -221 0
255 -80 -221 0
-255 80 0
-255 221 0
256 222 254 0
-256 -222 0
-256 -254 0
257 255 -256 0
-257 -255 0
-257 256 0
258 253 257 0
-258 -253 0
-258 -257 0
259 203 -258 0
-259 -203 0
-259 258 0
260 -99 221 0
-260 99 0
-260 -221 0
261 -89 -221 0
-261 89 0
-261 221 0
262 -222 260 0
-262 222 0
-262 -260 0
263 261 -262 0
-263 -261 0
-263 262 0
264 -109 221 0
-264 109 0
-264 -221 0
265 -79 -221 0
-265 79 0
-265 221 0
266 222 264 0
-266 -222 0
-266 -264 0
267 265 -266 0
-267 -265 0
-267 266 0
268 263 267 0
-268 -263 0
-268 -267 0
269 -30 268 0
-269 30 0
-269 -268 0
270 -259 -269 0
-270 259 0
-270 269 0
271 -218 -270 0
-271 218 0
-271 270 0
272 -207 270 0
-272 207 0
-272 -270 0
273 -8 271 0
-273 8 0
-273 -271 0
274 272 -273 0
-274 -272 0
-274 273 0
275 249 -274 0
-275 -249 0
-275 274 0
276 -8 270 0
-276 8 0
-276 -270 0
277 -45 193 0
-277 45 0
-277 -193 0
278 -55 -193 0
-278 55 0
-278 193 0
279 -196 277 0
-279 196 0
-279 -277 0
280 278 -279 0
-280 -278 0
-280 279 0
281 -66 193 0
-281 66 0
-281 -193 0
282 -34 -193 0
-282 34 0
-282 193 0
283 196 281 0
-283 -196 0
-283 -281 0
284 282 -283 0
-284 -282 0
-284 283 0
285 280 284 0
-285 -280 0
-285 -284 0
286 209 285 0
-286 -209 0
-286 -285 0
287 -209 -285 0
-287 209 0
-287 285 0
288 -67 193 0
-288 67 0
-288 -193 0
289 -35 -193 0
-289 35 0
-289 193 0
290 196 288 0
-290 -196 0
-290 -288 0
291 289 -290 0
-291 -289 0
-291 290 0
292 56 -193 0
-292 -56 0
-292 193 0
293 -196 -292 0
-293 196 0
-293 292 0
294 291 293 0
-294 -291 0
-294 -293 0
295 208 294 0
-295 -208 0
-295 -294 0
296 -208 -294 0
-296 208 0
-296 294 0
297 286 287 0
-297 -286 0
-297 -287 0
298 295 296 0
-298 -295 0
-298 -296 0
299 -297 -298 0
-299 297 0
-299 298 0
300 -276 299 0
-300 276 0
-300 -299 0
301 -275 300 0
-301 275 0
-301 -300 0
302 259 -269 0
-302 -259 0
-302 269 0
303 -102 221 0
-303 102 0
-303 -221 0
304 -92 -221 0
-304 92 0
-304 221 0
305 -222 303 0
-305 222 0
-305 -303 0
306 304 -305 0
-306 -304 0
-306 305 0
307 -112 221 0
-307 112 0
-307 -221 0
308 -82 -221 0
-308 82 0
-308 221 0
309 222 307 0
-309 -222 0
-309 -307 0
310 308 -309 0
-310 -308 0
-310 309 0
311 306 310 0
-311 -306 0
-311 -310 0
312 -214 -311 0
-312 214 0
-312 311 0
313 -103 221 0
-313 103 0
-313 -221 0
314 -93 -221 0
-314 93 0
-314 221 0
315 -222 313 0
-315 222 0
-315 -313 0
316 314 -315 0
-316 -314 0
-316 315 0
317 -113 221 0
-317 113 0
-317 -221 0
318 -83 -221 0
-318 83 0
-318 221 0
319 222 317 0
-319 -222 0
-319 -317 0
320 318 -319 0
-320 -318 0
-320 319 0
321 316 320 0
-321 -316 0
-321 -320 0
322 212 321 0
-322 -212 0
-322 -321 0
323 -212 -321 0
-323 212 0
-323 321 0
324 312 322 0
-324 -312 0
-324 -322 0
325 323 -324 0
-325 -323 0
-325 324 0
326 -302 325 0
-326 302 0
-326 -325 0
327 214 311 0
-327 -214 0
-327 -311 0
328 -302 -327 0
-328 302 0
-328 327 0
329 326 328 0
-329 -326 0
-329 -328 0
330 -44 193 0
-330 44 0
-330 -193 0
331 -54 -193 0
-331 54 0
-331 193 0
332 -196 330 0
-332 196 0
-332 -330 0
333 331 -332 0
-333 -331 0
-333 332 0
334 -65 193 0
-334 65 0
-334 -193 0
335 -33 -193 0
-335 33 0
-335 193 0
336 196 334 0
-336 -196 0
-336 -334 0
337 335 -336 0
-337 -335 0
-337 336 0
338 333 337 0
-338 -333 0
-338 -337 0
339 210 338 0
-339 -210 0
-339 -338 0
340 -302 -339 0
-340 302 0
-340 339 0
341 -329 -340 0
-341 329 0
-341 340 0
342 -205 270 0
-342 205 0
-342 -270 0
343 -216 -270 0
-343 216 0
-343 270 0
344 342 343 0
-344 -342 0
-344 -343 0
345 -95 221 0
-345 95 0
-345 -221 0
346 -85 -221 0
-346 85 0
-346 221 0
347 -222 345 0
-347 222 0
-347 -345 0
348 346 -347 0
-348 -346 0
-348 347 0
349 -105 221 0
-349 105 0
-349 -221 0
350 -75 -221 0
-350 75 0
-350 221 0
351 222 349 0
-351 -222 0
-351 -349 0
352 350 -351 0
-352 -350 0
-352 351 0
353 348 352 0
-353 -348 0
-353 -352 0
354 211 353 0
-354 -211 0
-354 -353 0
355 -302 -354 0
-355 302 0
-355 354 0
356 -48 193 0
-356 48 0
-356 -193 0
357 -59 -193 0
-357 59 0
-357 193 0
358 -196 356 0
-358 196 0
-358 -356 0
359 357 -358 0
-359 -357 0
-359 358 0
360 -70 193 0
-360 70 0
-360 -193 0
361 -38 -193 0
-361 38 0
-361 193 0
362 196 360 0
-362 -196 0
-362 -360 0
363 361 -362 0
-363 -361 0
-363 362 0
364 359 363 0
-364 -359 0
-364 -363 0
365 -276 -286 0
-365 276 0
-365 286 0
366 -211 -353 0
-366 211 0
-366 353 0
367 -210 -338 0
-367 210 0
-367 338 0
368 339 366 0
-368 -339 0
-368 -366 0
369 367 -368 0
-369 -367 0
-369 368 0
370 -302 369 0
-370 302 0
-370 -369 0
371 -8 -249 0
-371 8 0
-371 249 0
372 274 -371 0
-372 -274 0
-372 371 0
373 275 372 0
-373 -275 0
-373 -372 0
374 -47 193 0
-374 47 0
-374 -193 0
375 -58 -193 0
-375 58 0
-375 193 0
376 -196 374 0
-376 196 0
-376 -374 0
377 375 -376 0
-377 -375 0
-377 376 0
378 -69 193 0
-378 69 0
-378 -193 0
379 -37 -193 0
-379 37 0
-379 193 0
380 196 378 0
-380 -196 0
-380 -378 0
381 379 -380 0
-381 -379 0
-381 380 0
382 377 381 0
-382 -377 0
-382 -381 0
383 -217 -270 0
-383 217 0
-383 270 0
384 -206 270 0
-384 206 0
-384 -270 0
385 -8 383 0
-385 8 0
-385 -383 0
386 384 -385 0
-386 -384 0
-386 385 0
387 382 -386 0
-387 -382 0
-387 386 0
388 -373 -387 0
-388 373 0
-388 387 0
389 344 364 0
-389 -344 0
-389 -364 0
390 -344 -364 0
-390 344 0
-390 364 0
391 389 390 0
-391 -389 0
-391 -390 0
392 -8 -382 0
-392 8 0
-392 382 0
393 386 -392 0
-393 -386 0
-393 392 0
394 215 -270 0
-394 -215 0
-394 270 0
395 204 270 0
-395 -204 0
-395 -270 0
396 394 395 0
-396 -394 0
-396 -395 0
397 -50 193 0
-397 50 0
-397 -193 0
398 -61 -193 0
-398 61 0
-398 193 0
399 -196 397 0
-399 196 0
-399 -397 0
400 398 -399 0
-400 -398 0
-400 399 0
401 -72 193 0
-401 72 0
-401 -193 0
402 -40 -193 0
-402 40 0
-402 193 0
403 196 401 0
-403 -196 0
-403 -401 0
404 402 -403 0
-404 -402 0
-404 403 0
405 400 404 0
-405 -400 0
-405 -404 0
406 -202 270 0
-406 202 0
-406 -270 0
407 -214 -270 0
-407 214 0
-407 270 0
408 406 407 0
-408 -406 0
-408 -407 0
409 -405 408 0
-409 405 0
-409 -408 0
410 405 -408 0
-410 -405 0
-410 408 0
411 -212 -270 0
-411 212 0
-411 270 0
412 -42 193 0
-412 42 0
-412 -193 0
413 -52 -193 0
-413 52 0
-413 193 0
414 -196 412 0
-414 196 0
-414 -412 0
415 413 -414 0
-415 -413 0
-415 414 0
416 -63 193 0
-416 63 0
-416 -193 0
417 -31 -193 0
-417 31 0
-417 193 0
418 196 416 0
-418 -196 0
-418 -416 0
419 417 -418 0
-419 -417 0
-419 418 0
420 415 419 0
-420 -415 0
-420 -419 0
421 -201 270 0
-421 201 0
-421 -270 0
422 411 420 0
-422 -411 0
-422 -420 0
423 421 -422 0
-423 -421 0
-423 422 0
424 410 423 0
-424 -410 0
-424 -423 0
425 409 424 0
-425 -409 0
-425 -424 0
426 -49 193 0
-426 49 0
-426 -193 0
427 -60 -193 0
-427 60 0
-427 193 0
428 -196 426 0
-428 196 0
-428 -426 0
429 427 -428 0
-429 -427 0
-429 428 0
430 -71 193 0
-430 71 0
-430 -193 0
431 -39 -193 0
-431 39 0
-431 193 0
432 196 430 0
-432 -196 0
-432 -430 0
433 431 -432 0
-433 -431 0
-433 432 0
434 429 433 0
-434 -429 0
-434 -433 0
435 425 -434 0
-435 -425 0
-435 434 0
436 396 435 0
-436 -396 0
-436 -435 0
437 -425 434 0
-437 425 0
-437 -434 0
438 436 437 0
-438 -436 0
-438 -437 0
439 300 387 0
-439 -300 0
-439 -387 0
440 391 393 0
-440 -391 0
-440 -393 0
441 -439 -440 0
-441 439 0
-441 440 0
442 -373 -441 0
-442 373 0
-442 441 0
443 438 -442 0
-443 -438 0
-443 442 0
444 -239 364 0
-444 239 0
-444 -364 0
445 328 -444 0
-445 -328 0
-445 444 0
446 355 -445 0
-446 -355 0
-446 445 0
447 300 -344 0
-447 -300 0
-447 344 0
448 365 370 0
-448 -365 0
-448 -370 0
449 -447 -448 0
-449 447 0
-449 448 0
450 -329 -446 0
-450 329 0
-450 446 0
451 -449 -450 0
-451 449 0
-451 450 0
452 341 -451 0
-452 -341 0
-452 451 0
453 301 -452 0
-453 -301 0
-453 452 0
454 388 -453 0
-454 -388 0
-454 453 0
455 443 -454 0
-455 -443 0
-455 454 0
456 -249 285 0
-456 249 0
-456 -285 0
457 249 -285 0
-457 -249 0
-457 285 0
458 456 457 0
-458 -456 0
-458 -457 0
459 294 -338 0
-459 -294 0
-459 338 0
460 -294 338 0
-460 294 0
-460 -338 0
461 459 460 0
-461 -459 0
-461 -460 0
462 -458 -461 0
-462 458 0
-462 461 0
463 458 461 0
-463 -458 0
-463 -461 0
464 462 463 0
-464 -462 0
-464 -463 0
465 405 434 0
-465 -405 0
-465 -434 0
466 -405 -434 0
-466 405 0
-466 434 0
467 465 466 0
-467 -465 0
-467 -466 0
468 364 382 0
-468 -364 0
-468 -382 0
469 -364 -382 0
-469 364 0
-469 382 0
470 468 469 0
-470 -468 0
-470 -469 0
471 -51 193 0
-471 51 0
-471 -193 0
472 -62 -193 0
-472 62 0
-472 193 0
473 -196 471 0
-473 196 0
-473 -471 0
474 472 -473 0
-474 -472 0
-474 473 0
475 -73 193 0
-475 73 0
-475 -193 0
476 -41 -193 0
-476 41 0
-476 193 0
477 196 475 0
-477 -196 0
-477 -475 0
478 476 -477 0
-478 -476 0
-478 477 0
479 474 478 0
-479 -474 0
-479 -478 0
480 -420 479 0
-480 420 0
-480 -479 0
481 420 -479 0
-481 -420 0
-481 479 0
482 480 481 0
-482 -480 0
-482 -481 0
483 -470 482 0
-483 470 0
-483 -482 0
484 470 -482 0
-484 -470 0
-484 482 0
485 483 484 0
-485 -483 0
-485 -484 0
486 467 485 0
-486 -467 0
-486 -485 0
487 -467 -485 0
-487 467 0
-487 485 0
488 486 487 0
-488 -486 0
-488 -487 0
489 -464 -488 0
-489 464 0
-489 488 0
490 464 488 0
-490 -464 0
-490 -488 0
491 -101 221 0
-491 101 0
-491 -221 0
492 -91 -221 0
-492 91 0
-492 221 0
493 -222 491 0
-493 222 0
-493 -491 0
494 492 -493 0
-494 -492 0
-494 493 0
495 -111 221 0
-495 111 0
-495 -221 0
496 -81 -221 0
-496 81 0
-496 221 0
497 222 495 0
-497 -222 0
-497 -495 0
498 496 -497 0
-498 -496 0
-498 497 0
499 494 498 0
-499 -494 0
-499 -498 0
500 353 -499 0
-500 -353 0
-500 499 0
501 -353 499 0
-501 353 0
-501 -499 0
502 500 501 0
-502 -500 0
-502 -501 0
503 -104 221 0
-503 104 0
-503 -221 0
504 -94 -221 0
-504 94 0
-504 221 0
505 -222 503 0
-505 222 0
-505 -503 0
506 504 -505 0
-506 -504 0
-506 505 0
507 -114 221 0
-507 114 0
-507 -221 0
508 -84 -221 0
-508 84 0
-508 221 0
509 222 507 0
-509 -222 0
-509 -507 0
510 508 -509 0
-510 -508 0
-510 509 0
511 506 510 0
-511 -506 0
-511 -510 0
512 258 -511 0
-512 -258 0
-512 511 0
513 -258 511 0
-513 258 0
-513 -511 0
514 512 513 0
-514 -512 0
-514 -513 0
515 -502 514 0
-515 502 0
-515 -514 0
516 502 -514 0
-516 -502 0
-516 514 0
517 515 516 0
-517 -515 0
-517 -516 0
518 -97 221 0
-518 97 0
-518 -221 0
519 -87 -221 0
-519 87 0
-519 221 0
520 -222 518 0
-520 222 0
-520 -518 0
521 519 -520 0
-521 -519 0
-521 520 0
522 -107 221 0
-522 107 0
-522 -221 0
523 -77 -221 0
-523 77 0
-523 221 0
524 222 522 0
-524 -222 0
-524 -522 0
525 523 -524 0
-525 -523 0
-525 524 0
526 521 525 0
-526 -521 0
-526 -525 0
527 -98 221 0
-527 98 0
-527 -221 0
528 -88 -221 0
-528 88 0
-528 221 0
529 -222 527 0
-529 222 0
-529 -527 0
530 528 -529 0
-530 -528 0
-530 529 0
531 -108 221 0
-531 108 0
-531 -221 0
532 -78 -221 0
-532 78 0
-532 221 0
533 222 531 0
-533 -222 0
-533 -531 0
534 532 -533 0
-534 -532 0
-534 533 0
535 530 534 0
-535 -530 0
-535 -534 0
536 -268 535 0
-536 268 0
-536 -535 0
537 268 -535 0
-537 -268 0
-537 535 0
538 536 537 0
-538 -536 0
-538 -537 0
539 -526 -538 0
-539 526 0
-539 538 0
540 526 538 0
-540 -526 0
-540 -538 0
541 539 540 0
-541 -539 0
-541 -540 0
542 -311 321 0
-542 311 0
-542 -321 0
543 311 -321 0
-543 -311 0
-543 321 0
544 542 543 0
-544 -542 0
-544 -543 0
545 -541 544 0
-545 541 0
-545 -544 0
546 541 -544 0
-546 -541 0
-546 544 0
547 545 546 0
-547 -545 0
-547 -546 0
548 517 -547 0
-548 -517 0
-548 547 0
549 -517 547 0
-549 517 0
-549 -547 0
550 489 490 0
-550 -489 0
-550 -490 0
551 548 549 0
-551 -548 0
-551 -549 0
552 -550 -551 0
-552 550 0
-552 551 0
553 29 552 0
-553 -29 0
-553 -552 0
554 -32 -64 0
-554 32 0
-554 64 0
555 -76 -106 0
-555 76 0
-555 106 0
556 -554 -555 0
-556 554 0
-556 555 0
557 -223 556 0
-557 223 0
-557 -556 0
558 -43 -53 0
-558 43 0
-558 53 0
559 -86 -96 0
-559 86 0
-559 96 0
560 -558 -559 0
-560 558 0
-560 559 0
561 -195 560 0
-561 195 0
-561 -560 0
562 -224 229 0
-562 224 0
-562 -229 0
563 224 -229 0
-563 -224 0
-563 229 0
564 562 563 0
-564 -562 0
-564 -563 0
565 225 228 0
-565 -225 0
-565 -228 0
566 -225 -228 0
-566 225 0
-566 228 0
567 565 566 0
-567 -565 0
-567 -566 0
568 226 227 0
-568 -226 0
-568 -227 0
569 -226 -227 0
-569 226 0
-569 227 0
570 568 569 0
-570 -568 0
-570 -569 0
571 230 231 0
-571 -230 0
-571 -231 0
572 -230 -231 0
-572 230 0
-572 231 0
573 571 572 0
-573 -571 0
-573 -572 0
574 -201 202 0
-574 201 0
-574 -202 0
575 201 -202 0
-575 -201 0
-575 202 0
576 574 575 0
-576 -574 0
-576 -575 0
577 -573 -576 0
-577 573 0
-577 576 0
578 573 576 0
-578 -573 0
-578 -576 0
579 577 578 0
-579 -577 0
-579 -578 0
580 -570 579 0
-580 570 0
-580 -579 0
581 570 -579 0
-581 -570 0
-581 579 0
582 580 581 0
-582 -580 0
-582 -581 0
583 567 582 0
-583 -567 0
-583 -582 0
584 -567 -582 0
-584 567 0
-584 582 0
585 583 584 0
-585 -583 0
-585 -584 0
586 -564 -585 0
-586 564 0
-586 585 0
587 564 585 0
-587 -564 0
-587 -585 0
588 -10 586 0
-588 10 0
-588 -586 0
589 587 -588 0
-589 -587 0
-589 588 0
590 209 210 0
-590 -209 0
-590 -210 0
591 -209 -210 0
-591 209 0
-591 210 0
592 590 591 0
-592 -590 0
-592 -591 0
593 -211 212 0
-593 211 0
-593 -212 0
594 211 -212 0
-594 -211 0
-594 212 0
595 593 594 0
-595 -593 0
-595 -594 0
596 -592 -595 0
-596 592 0
-596 595 0
597 592 595 0
-597 -592 0
-597 -595 0
598 596 597 0
-598 -596 0
-598 -597 0
599 -207 208 0
-599 207 0
-599 -208 0
600 207 -208 0
-600 -207 0
-600 208 0
601 599 600 0
-601 -599 0
-601 -600 0
602 205 206 0
-602 -205 0
-602 -206 0
603 -205 -206 0
-603 205 0
-603 206 0
604 602 603 0
-604 -602 0
-604 -603 0
605 204 232 0
-605 -204 0
-605 -232 0
606 -204 -232 0
-606 204 0
-606 232 0
607 605 606 0
-607 -605 0
-607 -606 0
608 -604 607 0
-608 604 0
-608 -607 0
609 604 -607 0
-609 -604 0
-609 607 0
610 608 609 0
-610 -608 0
-610 -609 0
611 -601 -610 0
-611 601 0
-611 610 0
612 601 610 0
-612 -601 0
-612 -610 0
613 611 612 0
-613 -611 0
-613 -612 0
614 598 613 0
-614 -598 0
-614 -613 0
615 -598 -613 0
-615 598 0
-615 613 0
616 614 615 0
-616 -614 0
-616 -615 0
617 219 220 0
-617 -219 0
-617 -220 0
618 -219 -220 0
-618 219 0
-618 220 0
619 617 618 0
-619 -617 0
-619 -618 0
620 215 216 0
-620 -215 0
-620 -216 0
621 -215 -216 0
-621 215 0
-621 216 0
622 620 621 0
-622 -620 0
-622 -621 0
623 217 218 0
-623 -217 0
-623 -218 0
624 -217 -218 0
-624 217 0
-624 218 0
625 623 624 0
-625 -623 0
-625 -624 0
626 214 233 0
-626 -214 0
-626 -233 0
627 -214 -233 0
-627 214 0
-627 233 0
628 626 627 0
-628 -626 0
-628 -627 0
629 625 -628 0
-629 -625 0
-629 628 0
630 -625 628 0
-630 625 0
-630 -628 0
631 629 630 0
-631 -629 0
-631 -630 0
632 -622 -631 0
-632 622 0
-632 631 0
633 622 631 0
-633 -622 0
-633 -631 0
634 632 633 0
-634 -632 0
-634 -633 0
635 -619 -634 0
-635 619 0
-635 634 0
636 619 634 0
-636 -619 0
-636 -634 0
637 635 636 0
-637 -635 0
-637 -636 0
638 616 637 0
-638 -616 0
-638 -637 0
639 622 -629 0
-639 -622 0
-639 629 0
640 622 -630 0
-640 -622 0
-640 630 0
641 236 640 0
-641 -236 0
-641 -640 0
642 -236 -640 0
-642 236 0
-642 640 0
643 641 642 0
-643 -641 0
-643 -642 0
644 632 639 0
-644 -632 0
-644 -639 0
645 643 -644 0
-645 -643 0
-645 644 0
646 619 -645 0
-646 -619 0
-646 645 0
647 -619 645 0
-647 619 0
-647 -645 0
648 237 -616 0
-648 -237 0
-648 616 0
649 -237 -614 0
-649 237 0
-649 614 0
650 646 647 0
-650 -646 0
-650 -647 0
651 649 -650 0
-651 -649 0
-651 650 0
652 648 -651 0
-652 -648 0
-652 651 0
653 -638 652 0
-653 638 0
-653 -652 0
654 638 -652 0
-654 -638 0
-654 652 0
655 653 654 0
-655 -653 0
-655 -654 0
656 557 561 0
-656 -557 0
-656 -561 0
657 589 -656 0
-657 -589 0
-657 656 0
658 655 -657 0
-658 -655 0
-658 657 0
659 553 -658 0
-659 -553 0
-659 658 0
660 634 645 0
-660 -634 0
-660 -645 0
661 -634 -645 0
-661 634 0
-661 645 0
662 660 661 0
-662 -660 0
-662 -661 0
663 194 405 0
-663 -194 0
-663 -405 0
664 467 -663 0
-664 -467 0
-664 663 0
665 482 -664 0
-665 -482 0
-665 664 0
666 -467 663 0
-666 467 0
-666 -663 0
667 -482 664 0
-667 482 0
-667 -664 0
668 666 -667 0
-668 -666 0
-668 667 0
669 -199 -238 0
-669 199 0
-669 238 0
670 665 -669 0
-670 -665 0
-670 669 0
671 668 -670 0
-671 -668 0
-671 670 0
672 -219 526 0
-672 219 0
-672 -526 0
673 220 -235 0
-673 -220 0
-673 235 0
674 672 -673 0
-674 -672 0
-674 673 0
675 -237 615 0
-675 237 0
-675 -615 0
676 -199 663 0
-676 199 0
-676 -663 0
677 -234 676 0
-677 234 0
-677 -676 0
678 674 677 0
-678 -674 0
-678 -677 0
679 675 -678 0
-679 -675 0
-679 678 0
680 662 -679 0
-680 -662 0
-680 679 0
681 671 -680 0
-681 -671 0
-681 680 0
682 659 -681 0
-682 -659 0
-682 681 0
683 455 -682 0
-683 -455 0
-683 682 0
240 683 0
-240 -683 0
240 0
w 1 0.500000
w 2 0.500000
w 3 0.500000
w 4 0.500000
w 5 0.500000
w 6 0.500000
w 7 0.500000
w 8 0.500000
w 9 0.500000
w 10 0.500000
w 11 0.500000
w 12 0.500000
w 13 0.500000
w 14 0.500000
w 15 0.500000
w 16 0.500000
w 17 0.500000
w 18 0.500000
w 19 0.500000
w 20 0.500000
w 21 0.500000
w 22 0.500000
w 23 0.500000
w 24 0.500000
w 25 0.500000
w 26 0.500000
w 27 0.500000
w 28 0.500000
w 29 0.500000
w 30 0.500000
w 31 0.500000
w 32 0.500000
w 33 0.500000
w 34 0.500000
w 35 0.500000
w 36 0.500000
w 37 0.500000
w 38 0.500000
w 39 0.500000
w 40 0.500000
w 41 0.500000
w 42 0.500000
w 43 0.500000
w 44 0.500000
w 45 0.500000
w 46 0.500000
w 47 0.500000
w 48 0.500000
w 49 0.500000
w 50 0.500000
w 51 0.500000
w 52 0.500000
w 53 0.500000
w 54 0.500000
w 55 0.500000
w 56 0.500000
w 57 0.500000
w 58 0.500000
w 59 0.500000
w 60 0.500000
w 61 0.500000
w 62 0.500000
w 63 0.500000
w 64 0.500000
w 65 0.500000
w 66 0.500000
w 67 0.500000
w 68 0.500000
w 69 0.500000
w 70 0.500000
w 71 0.500000
w 72 0.500000
w 73 0.500000
w 74 0.500000
w 75 0.500000
w 76 0.500000
w 77 0.500000
w 78 0.500000
w 79 0.500000
w 80 0.500000
w 81 0.500000
w 82 0.500000
w 83 0.500000
w 84 0.500000
w 85 0.500000
w 86 0.500000
w 87 0.500000
w 88 0.500000
w 89 0.500000
w 90 0.500000
w 91 0.500000
w 92 0.500000
w 93 0.500000
w 94 0.500000
w 95 0.500000
w 96 0.500000
w 97 0.500000
w 98 0.500000
w 99 0.500000
w 100 0.500000
w 101 0.500000
w 102 0.500000
w 103 0.500000
w 104 0.500000
w 105 0.500000
w 106 0.500000
w 107 0.500000
w 108 0.500000
w 109 0.500000
w 110 0.500000
w 111 0.500000
w 112 0.500000
w 113 0.500000
w 114 0.500000
w 115 0.500000
w 116 0.500000
w 117 0.500000
w 118 0.500000
w 119 0.500000
w 120 0.500000
w 121 0.500000
w 122 0.500000
w 123 0.500000
w 124 0.500000
w 125 0.500000
w 126 0.500000
w 127 0.500000
w 128 0.500000
w 129 0.500000
w 130 0.500000
w 131 0.500000
w 132 0.500000
w 133 0.500000
w 134 0.500000
w 135 0.500000
w 136 0.500000
w 137 0.500000
w 138 0.500000
w 139 0.500000
w 140 0.500000
w 141 0.500000
w 142 0.500000
w 143 0.500000
w 144 0.500000
w 145 0.500000
w 146 0.500000
w 147 0.500000
w 148 0.500000
w 149 0.500000
w 150 0.500000
w 151 0.500000
w 152 0.500000
w 153 0.500000
w 154 0.500000
w 155 0.500000
w 156 0.500000
w 157 0.500000
w 158 0.500000
w 159 0.500000
w 160 0.500000
w 161 0.500000
w 162 0.500000
w 163 0.500000
w 164 0.500000
w 165 0.500000
w 166 0.500000
w 167 0.500000
w 168 0.500000
w 169 0.500000
w 170 0.500000
w 171 0.500000
w 172 0.500000
w 173 0.500000
w 174 0.500000
w 175 0.500000
w 176 0.500000
w 177 0.500000
w 178 0.500000
w 179 0.500000
w 180 0.500000
w 181 0.500000
w 182 0.500000
w 183 0.500000
w 184 0.500000
w 185 0.500000
w 186 0.500000
w 187 0.500000
w 188 0.500000
w 189 0.500000
w 190 0.500000
w 191 0.500000
w 192 0.500000
w 193 0.500000
w 194 0.500000
w 195 0.500000
w 196 0.500000
w 197 0.500000
w 198 0.500000
w 199 0.500000
w 200 0.500000
w 201 0.500000
w 202 0.500000
w 203 0.500000
w 204 0.500000
w 205 0.500000
w 206 0.500000
w 207 0.500000
w 208 0.500000
w 209 0.500000
w 210 0.500000
w 211 0.500000
w 212 0.500000
w 213 0.500000
w 214 0.500000
w 215 0.500000
w 216 0.500000
w 217 0.500000
w 218 0.500000
w 219 0.500000
w 220 0.500000
w 221 0.500000
w 222 0.500000
w 223 0.500000
w 224 0.500000
w 225 0.500000
w 226 0.500000
w 227 0.500000
w 228 0.500000
w 229 0.500000
w 230 0.500000
w 231 0.500000
w 232 0.500000
w 233 0.500000
w 234 0.125000
w 235 0.125000
w 236 0.125000
w 237 0.125000
w 238 0.125000
w 239 0.125000
w 241 -1
w 242 -1
w 243 -1
w 244 -1
w 245 -1
w 246 -1
w 247 -1
w 248 -1
w 249 -1
w 250 -1
w 251 -1
w 252 -1
w 253 -1
w 254 -1
w 255 -1
w 256 -1
w 257 -1
w 258 -1
w 259 -1
w 260 -1
w 261 -1
w 262 -1
w 263 -1
w 264 -1
w 265 -1
w 266 -1
w 267 -1
w 268 -1
w 269 -1
w 270 -1
w 271 -1
w 272 -1
w 273 -1
w 274 -1
w 275 -1
w 276 -1
w 277 -1
w 278 -1
w 279 -1
w 280 -1
w 281 -1
w 282 -1
w 283 -1
w 284 -1
w 285 -1
w 286 -1
w 287 -1
w 288 -1
w 289 -1
w 290 -1
w 291 -1
w 292 -1
w 293 -1
w 294 -1
w 295 -1
w 296 -1
w 297 -1
w 298 -1
w 299 -1
w 300 -1
w 301 -1
w 302 -1
w 303 -1
w 304 -1
w 305 -1
w 306 -1
w 307 -1
w 308 -1
w 309 -1
w 310 -1
w 311 -1
w 312 -1
w 313 -1
w 314 -1
w 315 -1
w 316 -1
w 317 -1
w 318 -1
w 319 -1
w 320 -1
w 321 -1
w 322 -1
w 323 -1
w 324 -1
w 325 -1
w 326 -1
w 327 -1
w 328 -1
w 329 -1
w 330 -1
w 331 -1
w 332 -1
w 333 -1
w 334 -1
w 335 -1
w 336 -1
w 337 -1
w 338 -1
w 339 -1
w 340 -1
w 341 -1
w 342 -1
w 343 -1
w 344 -1
w 345 -1
w 346 -1
w 347 -1
w 348 -1
w 349 -1
w 350 -1
w 351 -1
w 352 -1
w 353 -1
w 354 -1
w 355 -1
w 356 -1
w 357 -1
w 358 -1
w 359 -1
w 360 -1
w 361 -1
w 362 -1
w 363 -1
w 364 -1
w 365 -1
w 366 -1
w 367 -1
w 368 -1
w 369 -1
w 370 -1
w 371 -1
w 372 -1
w 373 -1
w 374 -1
w 375 -1
w 376 -1
w 377 -1
w 378 -1
w 379 -1
w 380 -1
w 381 -1
w 382 -1
w 383 -1
w 384 -1
w 385 -1
w 386 -1
w 387 -1
w 388 -1
w 389 -1
w 390 -1
w 391 -1
w 392 -1
w 393 -1
w 394 -1
w 395 -1
w 396 -1
w 397 -1
w 398 -1
w 399 -1
w 400 -1
w 401 -1
w 402 -1
w 403 -1
w 404 -1
w 405 -1
w 406 -1
w 407 -1
w 408 -1
w 409 -1
w 410 -1
w 411 -1
w 412 -1
w 413 -1
w 414 -1
w 415 -1
w 416 -1
w 417 -1
w 418 -1
w 419 -1
w 420 -1
w 421 -1
w 422 -1
w 423 -1
w 424 -1
w 425 -1
w 426 -1
w 427 -1
w 428 -1
w 429 -1
w 430 -1
w 431 -1
w 432 -1
w 433 -1
w 434 -1
w 435 -1
w 436 -1
w 437 -1
w 438 -1
w 439 -1
w 440 -1
w 441 -1
w 442 -1
w 443 -1
w 444 -1
w 445 -1
w 446 -1
w 447 -1
w 448 -1
w 449 -1
w 450 -1
w 451 -1
w 452 -1
w 453 -1
w 454 -1
w 455 -1
w 456 -1
w 457 -1
w 458 -1
w 459 -1
w 460 -1
w 461 -1
w 462 -1
w 463 -1
w 464 -1
w 465 -1
w 466 -1
w 467 -1
w 468 -1
w 469 -1
w 470 -1
w 471 -1
w 472 -1
w 473 -1
w 474 -1
w 475 -1
w 476 -1
w 477 -1
w 478 -1
w 479 -1
w 480 -1
w 481 -1
w 482 -1
w 483 -1
w 484 -1
w 485 -1
w 486 -1
w 487 -1
w 488 -1
w 489 -1
w 490 -1
w 491 -1
w 492 -1
w 493 -1
w 494 -1
w 495 -1
w 496 -1
w 497 -1
w 498 -1
w 499 -1
w 500 -1
w 501 -1
w 502 -1
w 503 -1
w 504 -1
w 505 -1
w 506 -1
w 507 -1
w 508 -1
w 509 -1
w 510 -1
w 511 -1
w 512 -1
w 513 -1
w 514 -1
w 515 -1
w 516 -1
w 517 -1
w 518 -1
w 519 -1
w 520 -1
w 521 -1
w 522 -1
w 523 -1
w 524 -1
w 525 -1
w 526 -1
w 527 -1
w 528 -1
w 529 -1
w 530 -1
w 531 -1
w 532 -1
w 533 -1
w 534 -1
w 535 -1
w 536 -1
w 537 -1
w 538 -1
w 539 -1
w 540 -1
w 541 -1
w 542 -1
w 543 -1
w 544 -1
w 545 -1
w 546 -1
w 547 -1
w 548 -1
w 549 -1
w 550 -1
w 551 -1
w 552 -1
w 553 -1
w 554 -1
w 555 -1
w 556 -1
w 557 -1
w 558 -1
w 559 -1
w 560 -1
w 561 -1
w 562 -1
w 563 -1
w 564 -1
w 565 -1
w 566 -1
w 567 -1
w 568 -1
w 569 -1
w 570 -1
w 571 -1
w 572 -1
w 573 -1
w 574 -1
w 575 -1
w 576 -1
w 577 -1
w 578 -1
w 579 -1
w 580 -1
w 581 -1
w 582 -1
w 583 -1
w 584 -1
w 585 -1
w 586 -1
w 587 -1
w 588 -1
w 589 -1
w 590 -1
w 591 -1
w 592 -1
w 593 -1
w 594 -1
w 595 -1
w 596 -1
w 597 -1
w 598 -1
w 599 -1
w 600 -1
w 601 -1
w 602 -1
w 603 -1
w 604 -1
w 605 -1
w 606 -1
w 607 -1
w 608 -1
w 609 -1
w 610 -1
w 611 -1
w 612 -1
w 613 -1
w 614 -1
w 615 -1
w 616 -1
w 617 -1
w 618 -1
w 619 -1
w 620 -1
w 621 -1
w 622 -1
w 623 -1
w 624 -1
w 625 -1
w 626 -1
w 627 -1
w 628 -1
w 629 -1
w 630 -1
w 631 -1
w 632 -1
w 633 -1
w 634 -1
w 635 -1
w 636 -1
w 637 -1
w 638 -1
w 639 -1
w 640 -1
w 641 -1
w 642 -1
w 643 -1
w 644 -1
w 645 -1
w 646 -1
w 647 -1
w 648 -1
w 649 -1
w 650 -1
w 651 -1
w 652 -1
w 653 -1
w 654 -1
w 655 -1
w 656 -1
w 657 -1
w 658 -1
w 659 -1
w 660 -1
w 661 -1
w 662 -1
w 663 -1
w 664 -1
w 665 -1
w 666 -1
w 667 -1
w 668 -1
w 669 -1
w 670 -1
w 671 -1
w 672 -1
w 673 -1
w 674 -1
w 675 -1
w 676 -1
w 677 -1
w 678 -1
w 679 -1
w 680 -1
w 681 -1
w 682 -1
w 683 -1
w 240 -1
